2053249
9 12 50022
12 6 255761
6 10 253563
10 16 21151
16 4 223221
4 19 238490
19 15 105167
15 8 67784
8 14 61570
14 5 90180
5 20 53722
20 11 34793
11 18 119432
18 17 136280
17 3 20583
3 2 14476
2 1 106843
1 7 35813
7 13 118893
13 9 45505
